Minimize
  obj: x0 + x1 + x2 + x3 + x4 + x5 + x6 + x7 + x8

Subject To
  c0: x1 + x6 + x8 = 42
  c1: x1 + x5 = 21
  c2: x1 + x2 + x5 + x7 = 45
  c3: x0 + x1 + x2 + x3 + x4 + x5 + x6 = 63
  c4: x1 + x5 + x6 + x7 = 39
  c5: x0 + x1 + x4 + x5 + x7 = 41
  c6: x3 + x4 + x6 + x7 = 28
  c7: x3 + x4 + x6 + x7 = 28
  c8: x1 + x4 + x6 + x8 = 45

Bounds
  x0 >= 0
  x1 >= 0
  x2 >= 0
  x3 >= 0
  x4 >= 0
  x5 >= 0
  x6 >= 0
  x7 >= 0
  x8 >= 0

Generals
  x0 x1 x2 x3 x4 x5 x6 x7 x8

End
